20J6M/DAT/20J6MNTL-20.dat
20 6
24.755 24.755
25.8519 25.8519
29.1266 29.1266
23.2806 23.2806
23.3294 23.3294
25.0821 25.0821
31.4492 31.4492
29.4375 29.4375
26.8849 26.8849
28.0217 28.0217
29.967 29.967
14.6468 14.6468
26.7671 26.7671
17.4049 17.4049
23.7289 23.7289
28.7426 28.7426
25.9305 25.9305
24.4818 24.4818
24.3593 24.3593
24.2982 24.2982
63.4432