20J6M/SOL/20J6MNTL-20.sol
solution status: optimal solution found
objective value:                              63.4432
x#1#4                                               1 	(obj:0)
x#3#1                              0.0909443601381555 	(obj:0)
x#4#2                                               1 	(obj:0)
x#5#2                                               1 	(obj:0)
x#6#3                               0.614625569629337 	(obj:0)
x#7#6                                               1 	(obj:0)
x#8#6                              0.0688577494692142 	(obj:0)
x#9#4                               0.443412473172673 	(obj:0)
x#9#5                               0.556587526827327 	(obj:0)
x#10#5                              0.856393437942737 	(obj:0)
x#11#6                                              1 	(obj:0)
x#12#1                                              1 	(obj:0)
x#13#4                                              1 	(obj:0)
x#14#1                                              1 	(obj:0)
x#15#3                                              1 	(obj:0)
x#16#1                                              1 	(obj:0)
x#18#5                                              1 	(obj:0)
x#19#2                              0.691037919808861 	(obj:0)
x#20#3                                              1 	(obj:0)
z                                             63.4432 	(obj:1)
